(set-info :smt-lib-version 2.6)
(set-logic UFNIRA)
(set-info :source |
Generated by: Geoff Sutcliffe
Generated on: 2026-03-11
Generator: TPTPWorld
Application: Benchmarking automated theorem provers
Time limit: 120.0

These benchmarks are translations from the TPTP Library (Thousands of
Problems for Theorem Provers), see http://www.cs.miami.edu/~tptp/

The TPTP is maintained by Geoff Sutcliffe, and he contributed this
selection of benchmarks to SMT-LIB.  They were exported from the
v9.2.1 realease of TPTP.
|)
(set-info :category "industrial")
(set-info :status unknown)
; SZS status Success
(declare-sort $$unsorted 0)
(declare-sort tptp.uni 0)
(declare-sort tptp.ty 0)
(declare-fun tptp.sort1 (tptp.ty tptp.uni) Bool)
(declare-fun tptp.witness1 (tptp.ty) tptp.uni)
(assert (forall ((A tptp.ty)) (tptp.sort1 A (tptp.witness1 A))))
(declare-fun tptp.int () tptp.ty)
(declare-fun tptp.real () tptp.ty)
(declare-sort tptp.bool1 0)
(declare-fun tptp.bool () tptp.ty)
(declare-fun tptp.true1 () tptp.bool1)
(declare-fun tptp.false1 () tptp.bool1)
(declare-fun tptp.match_bool1 (tptp.ty tptp.bool1 tptp.uni tptp.uni) tptp.uni)
(assert (forall ((A tptp.ty) (X tptp.bool1) (X1 tptp.uni) (X2 tptp.uni)) (tptp.sort1 A (tptp.match_bool1 A X X1 X2))))
(assert (forall ((A tptp.ty) (Z tptp.uni) (Z1 tptp.uni)) (=> (tptp.sort1 A Z) (= (tptp.match_bool1 A tptp.true1 Z Z1) Z))))
(assert (forall ((A tptp.ty) (Z tptp.uni) (Z1 tptp.uni)) (=> (tptp.sort1 A Z1) (= (tptp.match_bool1 A tptp.false1 Z Z1) Z1))))
(assert (not (= tptp.true1 tptp.false1)))
(assert (forall ((U tptp.bool1)) (or (= U tptp.true1) (= U tptp.false1))))
(declare-sort tptp.tuple02 0)
(declare-fun tptp.tuple0 () tptp.ty)
(declare-fun tptp.tuple03 () tptp.tuple02)
(assert (forall ((U tptp.tuple02)) (= U tptp.tuple03)))
(declare-fun tptp.qtmark () tptp.ty)
(assert (forall ((X Int) (Y Int) (Z Int)) (=> (<= X Y) (=> (<= 0 Z) (<= (* X Z) (* Y Z))))))
(declare-fun tptp.abs1 (Int) Int)
(assert (forall ((X Int)) (let ((_let_1 (tptp.abs1 X))) (let ((_let_2 (<= 0 X))) (and (=> _let_2 (= _let_1 X)) (=> (not _let_2) (= _let_1 (- X))))))))
(assert (forall ((X Int) (Y Int)) (= (<= (tptp.abs1 X) Y) (and (<= (- Y) X) (<= X Y)))))
(assert (forall ((X Int)) (<= 0 (tptp.abs1 X))))
(declare-fun tptp.div2 (Int Int) Int)
(declare-fun tptp.mod2 (Int Int) Int)
(assert (forall ((X Int) (Y Int)) (=> (not (= Y 0)) (= X (+ (* Y (tptp.div2 X Y)) (tptp.mod2 X Y))))))
(assert (forall ((X Int) (Y Int)) (let ((_let_1 (tptp.div2 X Y))) (=> (and (<= 0 X) (< 0 Y)) (and (<= 0 _let_1) (<= _let_1 X))))))
(assert (forall ((X Int) (Y Int)) (let ((_let_1 (tptp.abs1 Y))) (let ((_let_2 (tptp.mod2 X Y))) (=> (not (= Y 0)) (and (< (- _let_1) _let_2) (< _let_2 _let_1)))))))
(assert (forall ((X Int) (Y Int)) (=> (and (<= 0 X) (< 0 Y)) (<= 0 (tptp.div2 X Y)))))
(assert (forall ((X Int) (Y Int)) (=> (and (<= X 0) (< 0 Y)) (<= (tptp.div2 X Y) 0))))
(assert (forall ((X Int) (Y Int)) (=> (and (<= 0 X) (not (= Y 0))) (<= 0 (tptp.mod2 X Y)))))
(assert (forall ((X Int) (Y Int)) (=> (and (<= X 0) (not (= Y 0))) (<= (tptp.mod2 X Y) 0))))
(assert (forall ((X Int) (Y Int)) (=> (not (= Y 0)) (<= (tptp.abs1 (* (tptp.div2 X Y) Y)) (tptp.abs1 X)))))
(assert (forall ((X Int)) (= (tptp.div2 X 1) X)))
(assert (forall ((X Int)) (= (tptp.mod2 X 1) 0)))
(assert (forall ((X Int) (Y Int)) (=> (and (<= 0 X) (< X Y)) (= (tptp.div2 X Y) 0))))
(assert (forall ((X Int) (Y Int)) (=> (and (<= 0 X) (< X Y)) (= (tptp.mod2 X Y) X))))
(assert (forall ((X Int) (Y Int) (Z Int)) (=> (and (< 0 X) (<= 0 Y) (<= 0 Z)) (= (tptp.div2 (+ (* X Y) Z) X) (+ Y (tptp.div2 Z X))))))
(assert (forall ((X Int) (Y Int) (Z Int)) (=> (and (< 0 X) (<= 0 Y) (<= 0 Z)) (= (tptp.mod2 (+ (* X Y) Z) X) (tptp.mod2 Z X)))))
(declare-fun tptp.lt_nat1 (Int Int) Bool)
(assert (forall ((X Int) (Y Int)) (= (tptp.lt_nat1 X Y) (and (<= 0 Y) (< X Y)))))
(declare-fun tptp.tuple2 (tptp.ty tptp.ty) tptp.ty)
(declare-fun tptp.tuple21 (tptp.ty tptp.ty tptp.uni tptp.uni) tptp.uni)
(assert (forall ((A tptp.ty) (A1 tptp.ty) (X tptp.uni) (X1 tptp.uni)) (tptp.sort1 (tptp.tuple2 A1 A) (tptp.tuple21 A1 A X X1))))
(declare-fun tptp.tuple2_proj_11 (tptp.ty tptp.ty tptp.uni) tptp.uni)
(assert (forall ((A tptp.ty) (A1 tptp.ty) (X tptp.uni)) (tptp.sort1 A1 (tptp.tuple2_proj_11 A1 A X))))
(assert (forall ((A tptp.ty) (A1 tptp.ty) (U tptp.uni) (U1 tptp.uni)) (=> (tptp.sort1 A1 U) (= (tptp.tuple2_proj_11 A1 A (tptp.tuple21 A1 A U U1)) U))))
(declare-fun tptp.tuple2_proj_21 (tptp.ty tptp.ty tptp.uni) tptp.uni)
(assert (forall ((A tptp.ty) (A1 tptp.ty) (X tptp.uni)) (tptp.sort1 A (tptp.tuple2_proj_21 A1 A X))))
(assert (forall ((A tptp.ty) (A1 tptp.ty) (U tptp.uni) (U1 tptp.uni)) (=> (tptp.sort1 A U1) (= (tptp.tuple2_proj_21 A1 A (tptp.tuple21 A1 A U U1)) U1))))
(assert (forall ((A tptp.ty) (A1 tptp.ty) (U tptp.uni)) (=> (tptp.sort1 (tptp.tuple2 A1 A) U) (= U (tptp.tuple21 A1 A (tptp.tuple2_proj_11 A1 A U) (tptp.tuple2_proj_21 A1 A U))))))
(declare-sort tptp.lpintcm_intrp 0)
(declare-fun tptp.lex1 (tptp.lpintcm_intrp tptp.lpintcm_intrp) Bool)
(declare-fun tptp.t2tb (tptp.lpintcm_intrp) tptp.uni)
(assert (forall ((X tptp.lpintcm_intrp)) (tptp.sort1 (tptp.tuple2 tptp.int tptp.int) (tptp.t2tb X))))
(declare-fun tptp.tb2t (tptp.uni) tptp.lpintcm_intrp)
(assert (forall ((I tptp.lpintcm_intrp)) (= (tptp.tb2t (tptp.t2tb I)) I)))
(assert (forall ((J tptp.uni)) (= (tptp.t2tb (tptp.tb2t J)) J)))
(declare-fun tptp.t2tb1 (Int) tptp.uni)
(assert (forall ((X Int)) (tptp.sort1 tptp.int (tptp.t2tb1 X))))
(declare-fun tptp.tb2t1 (tptp.uni) Int)
(assert (forall ((I Int)) (= (tptp.tb2t1 (tptp.t2tb1 I)) I)))
(assert (forall ((J tptp.uni)) (= (tptp.t2tb1 (tptp.tb2t1 J)) J)))
(assert (forall ((X1 Int) (X2 Int) (Y1 Int) (Y2 Int)) (=> (tptp.lt_nat1 X1 X2) (tptp.lex1 (tptp.tb2t (tptp.tuple21 tptp.int tptp.int (tptp.t2tb1 X1) (tptp.t2tb1 Y1))) (tptp.tb2t (tptp.tuple21 tptp.int tptp.int (tptp.t2tb1 X2) (tptp.t2tb1 Y2)))))))
(assert (forall ((X Int) (Y1 Int) (Y2 Int)) (let ((_let_1 (tptp.t2tb1 X))) (=> (tptp.lt_nat1 Y1 Y2) (tptp.lex1 (tptp.tb2t (tptp.tuple21 tptp.int tptp.int _let_1 (tptp.t2tb1 Y1))) (tptp.tb2t (tptp.tuple21 tptp.int tptp.int _let_1 (tptp.t2tb1 Y2))))))))
(assert (forall ((Z tptp.lpintcm_intrp) (Z1 tptp.lpintcm_intrp)) (=> (tptp.lex1 Z Z1) (or (exists ((X1 Int) (X2 Int) (Y1 Int) (Y2 Int)) (and (tptp.lt_nat1 X1 X2) (= Z (tptp.tb2t (tptp.tuple21 tptp.int tptp.int (tptp.t2tb1 X1) (tptp.t2tb1 Y1)))) (= Z1 (tptp.tb2t (tptp.tuple21 tptp.int tptp.int (tptp.t2tb1 X2) (tptp.t2tb1 Y2)))))) (exists ((X Int) (Y1 Int) (Y2 Int)) (let ((_let_1 (tptp.t2tb1 X))) (and (tptp.lt_nat1 Y1 Y2) (= Z (tptp.tb2t (tptp.tuple21 tptp.int tptp.int _let_1 (tptp.t2tb1 Y1)))) (= Z1 (tptp.tb2t (tptp.tuple21 tptp.int tptp.int _let_1 (tptp.t2tb1 Y2)))))))))))
(declare-fun tptp.even1 (Int) Bool)
(assert (forall ((N Int)) (= (tptp.even1 N) (exists ((K Int)) (= N (* 2 K))))))
(declare-fun tptp.odd1 (Int) Bool)
(assert (forall ((N Int)) (= (tptp.odd1 N) (exists ((K Int)) (= N (+ (* 2 K) 1))))))
(assert (forall ((N Int)) (or (tptp.even1 N) (tptp.odd1 N))))
(assert (forall ((N Int)) (=> (tptp.even1 N) (not (tptp.odd1 N)))))
(assert (forall ((N Int)) (=> (tptp.odd1 N) (not (tptp.even1 N)))))
(assert (forall ((N Int)) (=> (tptp.even1 N) (tptp.odd1 (+ N 1)))))
(assert (forall ((N Int)) (=> (tptp.odd1 N) (tptp.even1 (+ N 1)))))
(assert (forall ((N Int)) (=> (tptp.even1 N) (tptp.even1 (+ N 2)))))
(assert (forall ((N Int)) (=> (tptp.odd1 N) (tptp.odd1 (+ N 2)))))
(assert (forall ((K Int)) (tptp.even1 (* 2 K))))
(assert (forall ((K Int)) (tptp.odd1 (+ (* 2 K) 1))))
(declare-fun tptp.divides1 (Int Int) Bool)
(assert (forall ((D Int) (N Int)) (= (tptp.divides1 D N) (exists ((Q Int)) (= N (* Q D))))))
(assert (forall ((N Int)) (tptp.divides1 N N)))
(assert (forall ((N Int)) (tptp.divides1 1 N)))
(assert (forall ((N Int)) (tptp.divides1 N 0)))
(assert (forall ((A Int) (B Int) (C Int)) (=> (tptp.divides1 A B) (tptp.divides1 (* C A) (* C B)))))
(assert (forall ((A Int) (B Int) (C Int)) (=> (tptp.divides1 A B) (tptp.divides1 (* A C) (* B C)))))
(assert (forall ((A Int) (B Int)) (=> (tptp.divides1 A B) (tptp.divides1 A (- B)))))
(assert (forall ((A Int) (B Int)) (=> (tptp.divides1 A B) (tptp.divides1 (- A) B))))
(assert (forall ((A Int) (B Int)) (=> (tptp.divides1 (- A) B) (tptp.divides1 A B))))
(assert (forall ((A Int) (B Int)) (=> (tptp.divides1 A (- B)) (tptp.divides1 A B))))
(assert (forall ((A Int) (B Int) (C Int)) (=> (tptp.divides1 A B) (=> (tptp.divides1 A C) (tptp.divides1 A (+ B C))))))
(assert (forall ((A Int) (B Int) (C Int)) (=> (tptp.divides1 A B) (=> (tptp.divides1 A C) (tptp.divides1 A (- B C))))))
(assert (forall ((A Int) (B Int) (C Int)) (=> (tptp.divides1 A B) (tptp.divides1 A (* C B)))))
(assert (forall ((A Int) (B Int) (C Int)) (=> (tptp.divides1 A B) (tptp.divides1 A (* B C)))))
(assert (forall ((A Int) (B Int)) (tptp.divides1 A (* B A))))
(assert (forall ((A Int) (B Int)) (tptp.divides1 A (* A B))))
(assert (forall ((N Int)) (=> (tptp.divides1 N 1) (or (= N 1) (= N (- 1))))))
(assert (forall ((A Int) (B Int)) (=> (tptp.divides1 A B) (=> (tptp.divides1 B A) (or (= A B) (= A (- B)))))))
(assert (forall ((A Int) (B Int) (C Int)) (=> (tptp.divides1 A B) (=> (tptp.divides1 B C) (tptp.divides1 A C)))))
(assert (forall ((A Int) (B Int)) (=> (tptp.divides1 A B) (=> (not (= B 0)) (<= (tptp.abs1 A) (tptp.abs1 B))))))
(assert (forall ((X Int) (Y Int) (Z Int)) (let ((_let_1 (to_real X))) (let ((_let_2 (/ (to_real Z) _let_1))) (let ((_let_3 (>= _let_1 0.0))) (let ((_let_4 (/ (to_real (+ (* X Y) Z)) _let_1))) (=> (< 0 X) (= (ite _let_3 (to_int _let_4) (- (to_int (- _let_4)))) (+ Y (ite _let_3 (to_int _let_2) (- (to_int (- _let_2)))))))))))))
(assert (forall ((X Int) (Y Int) (Z Int)) (let ((_let_1 (to_real X))) (let ((_let_2 (to_real Z))) (let ((_let_3 (/ _let_2 _let_1))) (let ((_let_4 (>= _let_1 0.0))) (let ((_let_5 (to_real (+ (* X Y) Z)))) (let ((_let_6 (/ _let_5 _let_1))) (=> (< 0 X) (= (to_int (- _let_5 (* (ite _let_4 (to_int _let_6) (- (to_int (- _let_6)))) _let_1))) (to_int (- _let_2 (* (ite _let_4 (to_int _let_3) (- (to_int (- _let_3)))) _let_1)))))))))))))
(assert (forall ((A Int) (B Int)) (let ((_let_1 (to_real B))) (let ((_let_2 (to_real A))) (let ((_let_3 (/ _let_2 _let_1))) (=> (not (= B 0)) (=> (= (to_int (- _let_2 (* (ite (>= _let_1 0.0) (to_int _let_3) (- (to_int (- _let_3)))) _let_1))) 0) (tptp.divides1 B A))))))))
(assert (forall ((A Int) (B Int)) (let ((_let_1 (to_real B))) (let ((_let_2 (to_real A))) (let ((_let_3 (/ _let_2 _let_1))) (=> (not (= B 0)) (=> (tptp.divides1 B A) (= (to_int (- _let_2 (* (ite (>= _let_1 0.0) (to_int _let_3) (- (to_int (- _let_3)))) _let_1))) 0))))))))
(assert (forall ((A Int) (B Int)) (=> (not (= B 0)) (=> (= (tptp.mod2 A B) 0) (tptp.divides1 B A)))))
(assert (forall ((A Int) (B Int)) (=> (not (= B 0)) (=> (tptp.divides1 B A) (= (tptp.mod2 A B) 0)))))
(assert (forall ((A Int)) (= (tptp.even1 A) (tptp.divides1 2 A))))
(assert (forall ((A Int)) (= (tptp.odd1 A) (not (tptp.divides1 2 A)))))
(declare-fun tptp.gcd1 (Int Int) Int)
(assert (forall ((A Int) (B Int)) (<= 0 (tptp.gcd1 A B))))
(assert (forall ((A Int) (B Int)) (tptp.divides1 (tptp.gcd1 A B) A)))
(assert (forall ((A Int) (B Int)) (tptp.divides1 (tptp.gcd1 A B) B)))
(assert (forall ((A Int) (B Int) (X Int)) (=> (tptp.divides1 X A) (=> (tptp.divides1 X B) (tptp.divides1 X (tptp.gcd1 A B))))))
(assert (forall ((A Int) (B Int) (D Int)) (=> (<= 0 D) (=> (tptp.divides1 D A) (=> (tptp.divides1 D B) (=> (forall ((X Int)) (=> (tptp.divides1 X A) (=> (tptp.divides1 X B) (tptp.divides1 X D)))) (= D (tptp.gcd1 A B))))))))
(assert (forall ((X Int) (Y Int) (Z Int)) (= (tptp.gcd1 (tptp.gcd1 X Y) Z) (tptp.gcd1 X (tptp.gcd1 Y Z)))))
(assert (forall ((X Int) (Y Int)) (= (tptp.gcd1 X Y) (tptp.gcd1 Y X))))
(assert (forall ((A Int)) (=> (<= 0 A) (= (tptp.gcd1 A 0) A))))
(assert (forall ((A Int)) (=> (< A 0) (= (tptp.gcd1 A 0) (- A)))))
(assert (forall ((A Int) (B Int)) (= (tptp.gcd1 A B) (tptp.gcd1 (- A) B))))
(assert (forall ((A Int) (B Int) (Q Int)) (= (tptp.gcd1 A B) (tptp.gcd1 A (- B (* Q A))))))
(assert (forall ((A Int) (B Int)) (=> (not (= B 0)) (= (tptp.gcd1 B (tptp.mod2 A B)) (tptp.gcd1 A B)))))
(assert (forall ((A Int) (B Int)) (let ((_let_1 (to_real B))) (let ((_let_2 (to_real A))) (let ((_let_3 (/ _let_2 _let_1))) (=> (not (= B 0)) (= (tptp.gcd1 B (to_int (- _let_2 (* (ite (>= _let_1 0.0) (to_int _let_3) (- (to_int (- _let_3)))) _let_1)))) (tptp.gcd1 A B))))))))
(assert (forall ((A Int) (B Int) (C Int)) (=> (<= 0 C) (= (tptp.gcd1 (* C A) (* C B)) (* C (tptp.gcd1 A B))))))
(assert (forall ((N Int)) (=> (<= 0 N) (= (tptp.even1 N) (= N (* 2 (tptp.div2 N 2)))))))
(assert (forall ((N Int)) (=> (<= 0 N) (= (not (tptp.even1 N)) (= N (+ (* 2 (tptp.div2 N 2)) 1))))))
(assert (forall ((N Int)) (=> (<= 0 N) (<= 0 (tptp.div2 N 2)))))
(declare-fun tptp.coprime1 (Int Int) Bool)
(assert (forall ((A Int) (B Int)) (= (tptp.coprime1 A B) (= (tptp.gcd1 A B) 1))))
(declare-fun tptp.prime1 (Int) Bool)
(assert (forall ((P Int)) (= (tptp.prime1 P) (and (<= 2 P) (forall ((N Int)) (=> (and (< 1 N) (< N P)) (not (tptp.divides1 N P))))))))
(assert (not (tptp.prime1 1)))
(assert (tptp.prime1 2))
(assert (tptp.prime1 3))
(assert (forall ((P Int)) (=> (tptp.prime1 P) (forall ((D Int)) (=> (tptp.divides1 D P) (or (= D 1) (= D (- 1)) (= D P) (= D (- P))))))))
(assert (forall ((P Int)) (=> (<= 2 P) (=> (forall ((D Int)) (let ((_let_1 (* D D))) (=> (<= 2 D) (=> (tptp.prime1 D) (=> (and (< 1 _let_1) (<= _let_1 P)) (not (tptp.divides1 D P))))))) (tptp.prime1 P)))))
(assert (forall ((P Int)) (=> (tptp.prime1 P) (=> (tptp.even1 P) (= P 2)))))
(assert (forall ((P Int)) (=> (tptp.prime1 P) (=> (<= 3 P) (tptp.odd1 P)))))
(assert (forall ((P Int)) (= (tptp.prime1 P) (and (<= 2 P) (forall ((N Int)) (=> (and (<= 1 N) (< N P)) (tptp.coprime1 N P)))))))
(assert (forall ((A Int) (B Int) (C Int)) (=> (and (tptp.divides1 A (* B C)) (tptp.coprime1 A B)) (tptp.divides1 A C))))
(assert (forall ((P Int) (A Int) (B Int)) (=> (and (tptp.prime1 P) (tptp.divides1 P (* A B))) (or (tptp.divides1 P A) (tptp.divides1 P B)))))
(assert (forall ((A Int) (B Int) (C Int)) (=> (tptp.coprime1 A B) (= (tptp.gcd1 A (* B C)) (tptp.gcd1 A C)))))
(assert (forall ((U Int) (V Int)) (=> (<= 0 V) (=> (<= 0 U) (= (tptp.gcd1 (* 2 U) (* 2 V)) (* 2 (tptp.gcd1 U V)))))))
(assert (forall ((U Int) (V Int)) (let ((_let_1 (+ (* 2 V) 1))) (=> (<= 0 V) (=> (<= 0 U) (= (tptp.gcd1 (* 2 U) _let_1) (tptp.gcd1 U _let_1)))))))
(assert (forall ((U Int) (V Int)) (=> (<= 0 V) (=> (<= 0 U) (=> (tptp.even1 U) (=> (tptp.odd1 V) (= (tptp.gcd1 U V) (tptp.gcd1 (tptp.div2 U 2) V))))))))
(assert (forall ((U Int) (V Int)) (=> (<= 0 V) (=> (<= 0 U) (= (tptp.div2 (- (+ (* 2 U) 1) (+ (* 2 V) 1)) 2) (- U V))))))
(assert (not (forall ((U Int) (V Int)) (let ((_let_1 (+ (* 2 V) 1))) (let ((_let_2 (+ (* 2 U) 1))) (let ((_let_3 (tptp.gcd1 _let_2 _let_1))) (=> (and (<= 0 V) (<= V U)) (and (= _let_3 (tptp.gcd1 (- _let_2 (* 1 _let_1)) _let_1)) (= _let_3 (tptp.gcd1 (- U V) _let_1))))))))))
(check-sat)
(exit)
